% File represents an instance of a Composite Structure problem to be solved by a CP framework
% Created on 2025-03-26 10:41:22.740
T = 54;
n = 16;
m = 24;
edges = [(1, 2),
(5, 6),
(9, 10),
(13, 14),
(2, 3),
(6, 7),
(11, 10),
(14, 15),
(4, 3),
(8, 7),
(11, 12),
(15, 16),
(1, 5),
(9, 5),
(13, 9),
(2, 6),
(6, 10),
(14, 10),
(3, 7),
(11, 7),
(11, 15),
(4, 8),
(8, 12),
(12, 16)];
counts = [|20, 4, 20, 10,
|20, 4, 20, 8,
|20, 4, 20, 6,
|20, 4, 20, 8,
|18, 4, 18, 8,
|18, 4, 18, 6,
|18, 4, 18, 4,
|18, 4, 18, 6,
|18, 4, 18, 10,
|18, 2, 18, 6,
|18, 4, 18, 8,
|18, 4, 18, 4,
|18, 6, 18, 10,
|18, 4, 18, 8,
|18, 2, 18, 6,
|16, 2, 16, 4|];
